40
3 0 7
3 1 3
3 2 4
4 0 5
4 1 5
4 3 10
5 0 10
5 1 5
5 4 8
6 2 5
7 2 8
8 0 7
8 3 5
8 4 1
8 5 5
8 6 1
9 1 10
9 3 10
9 4 6
9 5 5
9 6 1
9 8 6
10 2 3
10 5 9
10 6 3
11 0 8
11 1 7
11 3 10
11 4 7
11 5 4
11 6 1
11 8 9
11 9 1
12 1 5
12 3 7
12 6 6
12 7 3
12 8 7
12 9 3
13 0 6
13 1 8
13 3 3
13 5 1
13 6 3
13 7 9
13 8 9
13 9 1
13 10 2
13 12 5
14 4 7
14 5 4
14 6 10
14 7 10
14 9 6
14 10 3
14 12 1
14 13 9
15 1 1
15 4 1
15 12 6
16 6 10
16 7 6
16 8 3
16 9 5
16 11 8
16 13 9
16 15 9
17 4 7
17 5 3
17 7 5
17 9 5
17 10 3
18 4 4
18 7 3
18 10 1
18 11 10
18 12 5
18 13 5
18 15 3
18 16 9
18 17 5
19 3 9
19 6 8
19 7 5
19 8 3
19 9 9
19 11 5
19 12 5
19 13 7
19 14 5
20 1 3
20 3 4
20 5 4
20 7 4
20 9 7
20 10 1
20 11 5
20 12 6
20 16 8
20 17 10
21 1 8
21 3 2
21 4 6
21 12 6
21 14 5
21 16 10
21 18 7
22 3 4
22 10 4
22 15 2
22 20 1
23 0 7
23 2 9
23 3 7
23 6 6
23 7 9
23 9 5
23 10 1
23 12 5
23 13 9
23 14 4
23 16 1
23 17 1
23 19 2
23 20 2
23 21 10
23 22 1
24 0 2
24 1 6
24 3 4
24 4 9
24 6 5
24 7 2
24 9 8
24 10 9
24 11 10
24 12 10
24 13 9
24 14 4
24 15 1
24 16 4
24 19 8
24 21 4
25 2 4
25 3 8
25 4 8
25 5 1
25 8 9
25 9 8
25 16 4
25 17 7
25 18 5
25 21 5
25 23 2
26 0 7
26 1 5
26 4 8
26 7 9
26 9 6
26 13 7
26 17 1
26 18 8
26 20 4
26 21 1
26 23 8
26 24 5
26 25 1
27 0 4
27 3 2
27 5 4
27 8 7
27 9 6
27 11 9
27 13 10
27 14 3
27 16 9
27 20 9
27 21 10
27 26 5
28 2 5
28 5 5
28 7 6
28 8 5
28 12 4
28 15 7
28 16 6
28 19 7
28 20 3
28 22 6
28 24 8
28 26 8
28 27 8
29 4 6
29 11 1
29 12 10
29 13 2
29 20 1
29 23 10
29 28 9
30 0 5
30 2 3
30 7 3
30 8 7
30 14 7
30 15 8
30 17 2
30 19 9
30 20 7
30 24 5
30 25 8
30 28 6
30 29 7
31 2 4
31 3 1
31 4 7
31 7 5
31 9 3
31 10 5
31 12 10
31 14 9
31 15 8
31 17 7
31 18 8
31 19 2
31 21 5
31 22 5
31 23 7
31 25 2
31 26 1
31 27 10
31 29 9
31 30 7
32 0 4
32 1 8
32 2 10
32 4 8
32 5 10
32 7 1
32 8 2
32 9 7
32 10 5
32 11 4
32 14 8
32 15 5
32 17 1
32 18 3
32 19 9
32 20 9
32 26 1
32 28 1
32 30 3
32 31 4
33 0 2
33 2 9
33 6 2
33 9 2
33 10 7
33 12 8
33 15 4
33 16 10
33 18 3
33 22 5
33 27 8
33 30 9
33 31 7
34 1 3
34 4 7
34 5 4
34 7 10
34 8 9
34 9 2
34 10 6
34 17 4
34 18 6
34 20 2
34 21 6
34 24 9
34 25 4
34 26 6
34 27 5
34 29 6
34 30 8
34 31 6
35 0 4
35 4 3
35 5 8
35 13 3
35 15 5
35 16 3
35 18 1
35 20 6
35 21 1
35 29 2
35 31 1
35 32 5
36 0 7
36 3 3
36 13 1
36 14 2
36 17 10
36 20 9
36 24 5
36 25 10
36 28 7
36 29 8
36 31 10
36 32 7
36 34 6
37 1 6
37 3 6
37 4 2
37 7 8
37 8 1
37 11 1
37 13 4
37 14 6
37 15 2
37 17 8
37 19 7
37 21 8
37 22 3
37 23 9
37 24 1
37 25 7
37 28 6
37 30 5
37 31 8
37 34 6
37 35 10
37 36 3
38 2 10
38 3 4
38 5 5
38 7 6
38 8 3
38 10 5
38 11 6
38 14 1
38 16 8
38 20 10
38 21 3
38 27 2
38 29 9
38 34 9
38 36 6
38 37 10
39 2 10
39 3 8
39 4 2
39 6 5
39 9 6
39 10 3
39 12 6
39 13 10
39 15 7
39 17 4
39 19 6
39 20 7
39 21 1
39 24 10
39 28 9
39 29 10
39 31 10
39 33 1
39 34 1
39 35 6
39 36 2
39 38 2
